etc/upTests/___simple/set/0004.eprime.solution
language ESSENCE' 1.0
$ minion Nodes: 6
$ minion TotalTime: 0.001153
$ Savile Row TotalTime: 0.504
letting y_SetOccurrence be [false, false, true, true, true;int(3..7)]
letting x_SetOccurrence be [true, true, true, true, true, false;int(4..9)]
letting x_SetExplicit be [4, 5, 6, 7, 8;int(1..5)]
